# Node Net
4591   1
7651   1
5400   1
7741   1
8066   2
8032   2
3330   2
7740   2
7200   3
 14   3
 22   3
3420   3
720   4
8024   4
990   4
8079   5
3690   5
 29   5
2611   6
540   6
 76   6
 89   7
8100   7
5310   7
451   8
 17   8
5850   8
1800   9
3241   9
2160   9
  9  10
 74  10
3061  10
8092  11
8069  11
8080  12
4051  12
541  13
1621  13
8098  14
3781  14
3780  15
8011  15
